f:18931267
solution:
152 78 180 12 179 174 83 31 63 176 195 154 130 169 184 111 18 103 64 75 33 28 190 54 107 144 77 20 57 189 110 116 148 193 141 61 121 79 182 100 47 84 38 73 14 165 149 30 8 25 137 129 13 199 39 105 101 3 37 7 15 72 123 85 16 104 145 40 56 55 58 92 168 93 118 119 36 127 60 29 153 136 146 178 94 42 159 70 19 112 172 21 97 91 183 106 99 51 173 82 161 186 196 0 191 135 114 151 26 109 164 113 74 188 71 76 6 120 122 142 23 150 62 53 90 170 80 185 131 124 198 156 102 43 158 86 89 32 65 66 5 133 134 138 68 59 126 160 175 197 17 41 2 192 11 67 128 171 95 22 50 27 166 35 157 49 143 162 81 132 181 187 34 108 140 177 117 45 115 46 44 69 139 87 147 88 52 167 1 9 163 155 125 4 98 10 24 48 96 194 
